#--------------------------- Simulation variables -----------------------------#
  variable         t_eq   equal 10000  # Equilibration time [ts].
  variable         t      equal 10000  # Simulation time [ts].
  variable         dt     equal 0.01   # Timestep.
  variable         dt_t   equal 100    # Thermo information stride [ts].
  variable         dt_d   equal 1000   # Dump output stride [ts].
  variable         T      equal 0.92   # System target temperature.
  variable         T0     equal 2*${T} # System initial temperature.
  variable         P      equal 5.68   # System pressure.
  variable         damp_T equal 10.0   # Thermostat damping.
  variable         damp_P equal 1.0    # Thermostat damping.
  variable         rho    equal 1.05   # Initial density.

  # Initalizes random number generator.
  variable         rnd equal round(random(0,999999,${RANDOM}))
#------------------------------------------------------------------------------#


#---------------------------- Atomic setup ------------------------------------#
  units            lj
  timestep         ${dt}

  # Create atoms.
  lattice          ${lat} ${rho}
  region           sim_box block 0 ${n} 0 ${n} 0 ${n}
  create_box       1 sim_box
  create_atoms     1 box

  # Interatomic potential information.
  pair_style       lj/cut 2.5
  pair_modify      tail yes
  pair_coeff       * * 1 1
  neigh_modify     delay 0
  mass             1 1
#------------------------------------------------------------------------------#


#--------------------------- Output setup -------------------------------------#
  thermo_style     custom step temp press density
  thermo           1000
  fix              f1 all print ${dt_t} "$(time) $(temp) $(press) $(density)" &
                   title "# t T P density" &
                   screen no file data/thermo/thermo_${lat}.dat
#------------------------------------------------------------------------------#


#----------------------------- Run simulation ---------------------------------#
  # Equilibrate system (temperature and pressure).
  velocity         all create ${T0} ${rnd} dist gaussian
  fix              f2 all nph iso ${P} ${P} ${damp_P}
  variable         rnd equal round(random(0,999999,0)) # Generates new rnd #.
  fix              f3 all temp/csvr ${T} ${T} ${damp_T} ${rnd}
  run              ${t_eq}

  # Run simulation.
  dump             d1 all custom ${dt_d} data/dump/dump_${lat}_*.dat &
                   id type x y z
  run              ${t}
#------------------------------------------------------------------------------#
