#--------------------------- Simulation variables -----------------------------#
  variable         t_eq   equal 10000  # Equilibration time [ts].
  variable         t      equal 10000  # Simulation time [ts].
  variable         dt     equal 0.01   # Timestep.
  variable         dt_t   equal 100    # Thermo information stride [ts].
  variable         dt_d   equal 1000   # Dump output stride [ts].
  variable         T      equal 0.92   # System target temperature.
  variable         T0     equal 2*${T} # System initial temperature.
  variable         P      equal 5.68   # System pressure.
  variable         damp_T equal 10.0   # Thermostat damping.
  variable         damp_P equal 1.0    # Thermostat damping.
  variable         rho    equal 1.05   # Initial density.
  variable         natoms equal 1000   # Number of atoms.
  variable         L      equal (${natoms}/${rho})^(1/3) # Box edge length.

  # Initalizes random number generator.
  variable         rnd equal round(random(0,999999,${RANDOM}))
#------------------------------------------------------------------------------#


#---------------------------- Atomic setup ------------------------------------#
  units            lj
  timestep         ${dt}

  # Create atoms.
  region           sim_box block 0 ${L} 0 ${L} 0 ${L} units box
  create_box       1 sim_box
  create_atoms     1 random ${natoms} ${rnd} NULL

  # Interatomic potential information.
  pair_style       lj/cut 2.5
  pair_modify      tail yes
  pair_coeff       * * 1 1
  neigh_modify     delay 0
  mass             1 1
#------------------------------------------------------------------------------#


#--------------------------- Output setup -------------------------------------#
  thermo_style     custom step temp press density
  thermo           1000
  fix              f1 all print ${dt_t} "$(time) $(temp) $(press) $(density)" &
                   title "# t T P density" &
                   screen no file data/thermo/thermo_liquid.dat
#------------------------------------------------------------------------------#


#----------------------------- Run simulation ---------------------------------#
  # Relax coordinates to avoid overlap.
  min_modify       line forcezero
  minimize         0 0 2000 100000
  reset_timestep   0

  # Equilibrate system (temperature and pressure).
  velocity         all create ${T0} ${rnd} dist gaussian
  fix              f2 all nph iso ${P} ${P} ${damp_P}
  variable         rnd equal round(random(0,999999,0)) # Generates new rnd #.
  fix              f3 all temp/csvr ${T} ${T} ${damp_T} ${rnd}
  run              ${t_eq}

  # Run simulation.
  dump             d1 all custom ${dt_d} data/dump/dump_liquid_*.dat &
                   id type x y z
  run              ${t}
#------------------------------------------------------------------------------#
