#--------------------------- Simulation variables -----------------------------#
  variable         dt equal 0.01 # Timestep.
  variable         P  equal 5.68 # Target pressure.
  variable         n  equal 5    # System size.
#------------------------------------------------------------------------------#


#---------------------------- Atomic setup ------------------------------------#
  units            lj
  timestep         ${dt}

  # Create atoms.
  lattice          ${lat} 1.0
  region           sim_box block 0 ${n} 0 ${n} 0 ${n}
  create_box       1 sim_box
  create_atoms     1 box

  # Interatomic potential information.
  pair_style       lj/cut 2.5
  pair_coeff       * * 1 1
  neigh_modify     delay 0
  mass             1 1
#------------------------------------------------------------------------------#


#--------------------------- Output setup -------------------------------------#
  # Setup output variables.
  variable         pe equal pe/atoms
  variable         rho equal density

  # Define output.
  thermo_style     custom step press v_pe density pe
  thermo           1
#------------------------------------------------------------------------------#


#----------------------------- Run simulation ---------------------------------#
  fix              f1 all box/relax iso ${P}
  min_modify       line forcezero
  minimize         0 0 100000 100000
  write_dump       all custom data/dump_${lat}.dat id type x y z
  print            "${lat}: ${rho} ${pe}" append 'data/equilibrium_density.dat'
#------------------------------------------------------------------------------#
